
# LAMMPS supports a large number of force-field styles. We must select
# which ones we need. This information belongs in the "In Init" section (and
# (you can specify it anywhere in your LT files, multiple times if you like).
# If different molecules use different force-field styles, you can use hybrid
# styles.  (In this example the molecules share the same pair_style.)

write_once("In Init") {
  units           real
  atom_style      full
  boundary	  p p p
  pair_style	  lj/cut/coul/long 9.8 9.8
  special_bonds   lj/coul 0.0 0.0 0.5
  pair_modify     mix arithmetic
  kspace_sytle 	  pppm 0.0001
  bond_style      harmonic
  angle_style     harmonic
  dihedral_style  none
  improper_style  none
}

write_once("Data Boundary") {
  0.0 98.0 xlo xhi
  0.0 48.0 ylo yhi
  0.0 48.0 zlo zhi
}


import "solvent.lt"

import "polymer.lt"

polymer = new Polymer
#polymer.rot(-90.0, 0,0,0)    	# rotate it -90 degrees around the Z axis
polymer.move(20,22,22) 	# move it near the openning of the hole
