  units           real
  atom_style      full
  boundary	  p p p
  pair_style	  lj/cut/coul/long 9.8 9.8
  special_bonds   lj/coul 0.0 0.0 0.5
  pair_modify     mix arithmetic
  kspace_sytle 	  pppm 0.0001
  bond_style      harmonic
  angle_style     harmonic
  dihedral_style  none
  improper_style  none
